! B3LYP D4 def2-TZVP RIJCOSX
%MAXCORE 4000
* xyz 0 2
H    3.3299    1.2204    0.0000
H    3.6999    0.5796    0.0000
H   -0.7344   -3.6036    3.3310
H    1.5491   -4.0615    6.9624
H    3.1706   -1.7715    3.6994
C    0.8951   -1.7439    2.0504
C    3.5974   -2.3491    6.3295
C    1.2189   -2.6359    3.2740
C    2.5631   -2.9673    5.3898
C   -0.0473   -3.0817    4.0307
C    1.2903   -3.3606    6.1382
C    2.2293   -2.0013    4.2429
C    0.3307   -4.0487    5.1645
C   -0.8937   -4.5887    5.9052
O    0.2586   -2.5630    1.1086
O    2.1007   -1.2750    1.4976
Fe  -1.1519   -1.7158    0.0785
H    2.9665   -1.3879   -3.8170
H   -0.7581   -3.5745   -3.4999
H    1.6866   -4.0184   -6.9978
C    0.7326   -1.5931   -2.1789
C    3.5122   -2.0651   -6.4364
C    1.1077   -2.4416   -3.4188
C    2.5373   -2.7243   -5.4642
C    2.0744   -1.7381   -4.3786
C   -0.0998   -3.0079   -4.1937
C    1.3377   -3.2980   -6.2260
C    0.3882   -3.9996   -5.2558
C   -0.7785   -4.6415   -6.0084
O   -0.2435   -2.3315   -1.5119
O    1.8957   -1.5168   -1.3909
O   -0.1915   -0.0196    0.1710
Fe   1.7019   -0.1772   -0.0295
H   -5.2027   -0.1015   -6.5712
H   -3.4644   -2.2237   -3.2275
H   -3.6887    2.1032   -3.2325
C   -4.7169    2.4493   -5.6827
C   -4.6259    1.1395   -4.9027
C   -4.3998   -0.0716   -5.8036
C   -4.4850   -1.3310   -4.9340
C   -3.3763   -1.3190   -3.8664
C   -3.5010   -0.0617   -2.9971
C   -3.5075    1.2090   -3.8670
C   -2.4366    0.0190   -1.8888
C   -4.4339   -2.6019   -5.7764
O   -2.6654   -1.0086   -0.9629
O   -2.6267    1.2648   -1.2641
H   -0.6913    3.9241   -3.2066
H    1.5303    3.9934   -6.9059
H    3.1787    1.9628   -3.4683
C    0.8689    2.0477   -1.7604
C    3.5585    2.3351   -6.1750
C    1.2346    2.8806   -3.0568
C    2.5607    3.0396   -5.2503
C   -0.0159    3.3351   -3.8616
C    1.2821    3.3832   -6.0081
C    2.2348    2.1797   -4.0113
C    0.3515    4.1767   -5.0943
C   -0.8846    4.6289   -5.8795
O   -0.4629    1.6698   -1.8376
O    1.6470    0.8827   -1.6902
Fe  -1.1943    1.5708   -0.0709
H    2.9327    1.3530    3.7362
H   -0.7432    3.6204    3.3369
H    1.6559    3.9780    6.9125
C    0.7192    1.6072    2.0092
C    3.4741    2.0444    6.3575
C    1.1056    2.4526    3.2722
C    2.5056    2.6994    5.3685
C    2.0335    1.7248    4.2697
C   -0.1026    3.0436    4.0364
C    1.3078    3.2751    6.1212
C    0.3753    4.0006    5.1518
C   -0.7838    4.6290    5.9330
O    0.0742    2.4562    1.1064
O    1.8985    1.1670    1.3866
H   -5.2214    0.1427    6.5849
H   -3.5036    2.2839    3.2307
H   -3.7102   -2.0322    3.2441
C   -4.7252   -2.4015    5.6766
C   -4.6493   -1.0838    4.9077
C   -4.4238    0.1214    5.8123
C   -4.5182    1.3832    4.9462
C   -3.4032    1.3893    3.8838
C   -3.4432    0.1161    3.0282
C   -3.5167   -1.1528    3.8975
C   -2.2686    0.0596    2.0261
C   -4.4630    2.6455    5.8018
O   -2.6661    0.8044    0.9167
O   -2.1163   -1.2905    1.6724
H    3.7572   -2.9988    7.2166
H    3.2694   -1.3446    6.6708
H    4.5673   -2.2560    5.7970
H   -1.6025   -5.0562    5.1902
H   -1.4117   -3.7805    6.4629
H   -0.5740   -5.3739    6.6252
H    4.3697   -1.6301   -5.8823
H    3.0057   -1.2648   -7.0168
H    3.9091   -2.8274   -7.1411
H   -1.4781   -5.1281   -5.2958
H   -0.3954   -5.4255   -6.6963
H   -1.3298   -3.8827   -6.6015
H   -5.4794    2.3693   -6.4852
H   -3.7359    2.7166   -6.1277
H   -5.0352    3.2608   -4.9925
H   -5.1941   -2.5554   -6.5856
H   -4.6721   -3.4774   -5.1366
H   -3.4305   -2.7347   -6.2289
H    3.7135    2.9284   -7.1035
H    3.1968    1.3239   -6.4593
H    4.5408    2.2456   -5.6673
H   -1.6096    5.1361   -5.2102
H   -1.3853    3.7692   -6.3753
H   -0.5793    5.3577   -6.6625
H    4.3389    1.6050    5.8196
H    2.9664    1.2525    6.9486
H    3.8678    2.8119    7.0609
H   -1.4924    5.1348    5.2460
H   -0.3895    5.3955    6.6375
H   -1.3265    3.8625    6.5256
H   -5.4827   -2.3398    6.4839
H   -3.7375   -2.6645    6.1112
H   -5.0351   -3.2098    4.9781
H   -5.2163    2.5901    6.6169
H   -4.7023    3.5296    5.1748
H   -3.4565    2.7706    6.2505
O   -1.8844   -3.2897   -0.0379
H   -1.4070   -3.8971   -0.6599
*