! B3LYP def2-TZVP
* xyz 0 1
O   0.0000   0.0000   0.0000
H   0.7571   0.5860   0.0000
H  -0.7571   0.5860   0.0000
*