! B3LYP D4 def2-TZVP RIJCOSX
%MAXCORE 6000
* xyz 0 1
H    3.6561    0.3700    0.0000
H    3.6561   -0.3700    0.0000
H   -0.7282   -3.7967    3.3992
H    1.4693   -3.8780    7.0806
H    3.0734   -1.8183    3.6719
C    0.9867   -2.2661    1.9834
C    3.5561   -2.3621    6.2976
C    1.1682   -2.7829    3.3794
C    2.4072   -2.8294    5.4555
C    0.1538   -3.5442    3.9706
C    1.3886   -3.5901    6.0419
C    2.2970   -2.4243    4.1223
C    0.2542   -3.9469    5.3065
C   -0.8906   -4.6547    5.9696
O   -0.1080   -2.6244    1.3992
O    1.8562   -1.5089    1.4815
Fe  -0.9781   -1.5948   -0.0001
H    2.9860   -1.5941   -3.8365
H   -0.6863   -3.7952   -3.5201
H    1.4636   -3.7270   -7.2385
C    0.9810   -2.1474   -2.1094
C    3.4976   -2.0709   -6.4432
C    1.1387   -2.6541   -3.5222
C    2.3549   -2.6173   -5.6219
C    2.2349   -2.2336   -4.2825
C    0.1657   -3.4800   -4.1070
C    1.3762   -3.4417   -6.1988
C    0.2743   -3.8830   -5.4484
C   -0.8203   -4.7093   -6.0938
O   -0.0686   -2.5430   -1.4780
O    1.8433   -1.3567   -1.6388
O   -0.0179   -0.0001    0.0000
Fe   1.9561   -0.0001    0.0000
H   -5.1661   -0.0838   -6.5642
H   -3.4549   -2.2866   -3.2996
H   -3.6018    1.9935   -3.1576
C   -4.7016    2.4045   -5.5611
C   -4.4579    1.0913   -4.9041
C   -4.7156   -0.1029   -5.5802
C   -4.3493   -1.3226   -4.9985
C   -3.7554   -1.3464   -3.7399
C   -3.4937   -0.1464   -3.0793
C   -3.8418    1.0678   -3.6591
C   -2.7095   -0.1380   -1.8266
C   -4.4766   -2.5820   -5.7889
O   -2.4255   -1.2704   -1.3134
O   -2.3267    0.9904   -1.3845
H   -0.7282    3.7964   -3.3993
H    1.4693    3.8778   -7.0807
H    3.0734    1.8181   -3.6721
C    0.9867    2.2658   -1.9834
C    3.5561    2.3619   -6.2978
C    1.1682    2.7827   -3.3796
C    2.4072    2.8291   -5.4556
C    0.1538    3.5439   -3.9707
C    1.3886    3.5898   -6.0421
C    2.2970    2.4240   -4.1225
C    0.2542    3.9465   -5.3066
C   -0.8906    4.6544   -5.9698
O   -0.1080    2.6242   -1.3994
O    1.8562    1.5087   -1.4816
Fe  -0.9781    1.5945   -0.0001
H    2.9860    1.5939    3.8363
H   -0.6863    3.7950    3.5200
H    1.4636    3.7267    7.2384
C    0.9810    2.1472    2.1092
C    3.4976    2.0705    6.4431
C    1.1387    2.6539    3.5221
C    2.3549    2.6170    5.6218
C    2.2349    2.2335    4.2824
C    0.1657    3.4798    4.1069
C    1.3762    3.4414    6.1987
C    0.2743    3.8828    5.4482
C   -0.8203    4.7089    6.0937
O   -0.0686    2.5428    1.4779
O    1.8433    1.3563    1.6386
H   -5.1661    0.0835    6.5641
H   -3.4549    2.2863    3.2995
H   -3.6018   -1.9939    3.1574
C   -4.7016   -2.4047    5.5611
C   -4.4579   -1.0917    4.9040
C   -4.7156    0.1025    5.5801
C   -4.3493    1.3223    4.9984
C   -3.7554    1.3462    3.7399
C   -3.4937    0.1462    3.0791
C   -3.8418   -1.0681    3.6590
C   -2.7095    0.1377    1.8265
C   -4.4766    2.5816    5.7887
O   -2.4255    1.2701    1.3132
O   -2.3267   -0.9906    1.3844
H    3.4683   -2.7743    7.2810
H    3.5440   -1.2939    6.3562
H    4.4760   -2.6847    5.8564
H   -1.6596   -4.8417    5.2494
H   -1.2801   -4.0435    6.7567
H   -0.5485   -5.5837    6.3754
H    4.1283   -1.4701   -5.8217
H    3.1094   -1.4730   -7.2411
H    4.0651   -2.8822   -6.8489
H   -1.5660   -4.9460   -5.3639
H   -0.4019   -5.6141   -6.4827
H   -1.2657   -4.1510   -6.8907
H   -5.1798    2.2475   -6.5054
H   -3.7687    2.9060   -5.7128
H   -5.3315    3.0038   -4.9376
H   -4.9546   -2.3703   -6.7225
H   -5.0627   -3.2895   -5.2405
H   -3.5038   -2.9890   -5.9704
H    3.4682    2.7741   -7.2812
H    3.5441    1.2936   -6.3564
H    4.4760    2.6846   -5.8567
H   -1.6596    4.8414   -5.2497
H   -1.2801    4.0433   -6.7569
H   -0.5485    5.5835   -6.3755
H    4.1282    1.4699    5.8215
H    3.1094    1.4726    7.2409
H    4.0651    2.8818    6.8488
H   -1.5659    4.9457    5.3637
H   -0.4019    5.6137    6.4826
H   -1.2657    4.1507    6.8905
H   -5.1798   -2.2477    6.5053
H   -3.7687   -2.9062    5.7127
H   -5.3315   -3.0042    4.9376
H   -4.9546    2.3700    6.7223
H   -5.0627    3.2892    5.2404
H   -3.5038    2.9887    5.9702
*